optcell 2
ionmov 2
ntime 60

prtwf 1
getwfk -1
prtden 0

ecut 63.0
ecutsm 3.0
dilatmx 1.2
ixc 23

acell 8.0 8.0 7.3

rprim  1 0 0
       0 1 0
       0 0 1

#Definition of the atom types
ntypat 3
znucl 56 22 8

#Definition of the atoms
natom 5
typat 1*1 1*2 3*3

#Definition of the k-point grid
kptopt 1
ngkpt  8 8 8
nshiftk 1
shiftk 0.5 0.5 0.5

#Definition of the SCF procedure
nstep 80
toldff 5.0d-7
diemac 12.0

ndtset 20

xred1
    0.0016 0.0016 0.0
    0.5032 0.5032 0.5
    -0.0016 0.4984 0.5
    0.4984 -0.0016 0.5
    0.4984 0.4984 0.0

xred2
    0.0032 0.0032 0.0
    0.5064 0.5064 0.5
    -0.0032 0.4968 0.5
    0.4968 -0.0032 0.5
    0.4968 0.4968 0.0

xred3
    0.0048 0.0048 0.0
    0.5096 0.5096 0.5
    -0.0048 0.4952 0.5
    0.4952 -0.0048 0.5
    0.4952 0.4952 0.0

xred4
    0.0064 0.0064 0.0
    0.5128 0.5128 0.5
    -0.0064 0.4936 0.5
    0.4936 -0.0064 0.5
    0.4936 0.4936 0.0

xred5
    0.008 0.008 0.0
    0.516 0.516 0.5
    -0.008 0.492 0.5
    0.492 -0.008 0.5
    0.492 0.492 0.0

xred6
    0.0096 0.0096 0.0
    0.5192 0.5192 0.5
    -0.0096 0.4904 0.5
    0.4904 -0.0096 0.5
    0.4904 0.4904 0.0

xred7
    0.0112 0.0112 0.0
    0.5224 0.5224 0.5
    -0.0112 0.4888 0.5
    0.4888 -0.0112 0.5
    0.4888 0.4888 0.0

xred8
    0.0128 0.0128 0.0
    0.5256 0.5256 0.5
    -0.0128 0.4872 0.5
    0.4872 -0.0128 0.5
    0.4872 0.4872 0.0

xred9
    0.0144 0.0144 0.0
    0.5288 0.5288 0.5
    -0.0144 0.4856 0.5
    0.4856 -0.0144 0.5
    0.4856 0.4856 0.0

xred10
    0.016 0.016 0.0
    0.532 0.532 0.5
    -0.016 0.484 0.5
    0.484 -0.016 0.5
    0.484 0.484 0.0

xred11
    0.0176 0.0176 0.0
    0.5352 0.5352 0.5
    -0.0176 0.4824 0.5
    0.4824 -0.0176 0.5
    0.4824 0.4824 0.0

xred12
    0.0192 0.0192 0.0
    0.5384 0.5384 0.5
    -0.0192 0.4808 0.5
    0.4808 -0.0192 0.5
    0.4808 0.4808 0.0

xred13
    0.0208 0.0208 0.0
    0.5416 0.5416 0.5
    -0.0208 0.4792 0.5
    0.4792 -0.0208 0.5
    0.4792 0.4792 0.0

xred14
    0.0224 0.0224 0.0
    0.5448 0.5448 0.5
    -0.0224 0.4776 0.5
    0.4776 -0.0224 0.5
    0.4776 0.4776 0.0

xred15
    0.024 0.024 0.0
    0.548 0.548 0.5
    -0.024 0.476 0.5
    0.476 -0.024 0.5
    0.476 0.476 0.0

xred16
    0.0256 0.0256 0.0
    0.5512 0.5512 0.5
    -0.0256 0.4744 0.5
    0.4744 -0.0256 0.5
    0.4744 0.4744 0.0

xred17
    0.0272 0.0272 0.0
    0.5544 0.5544 0.5
    -0.0272 0.4728 0.5
    0.4728 -0.0272 0.5
    0.4728 0.4728 0.0

xred18
    0.0288 0.0288 0.0
    0.5576 0.5576 0.5
    -0.0288 0.4712 0.5
    0.4712 -0.0288 0.5
    0.4712 0.4712 0.0

xred19
    0.0304 0.0304 0.0
    0.5608 0.5608 0.5
    -0.0304 0.4696 0.5
    0.4696 -0.0304 0.5
    0.4696 0.4696 0.0

xred20
    0.032 0.032 0.0
    0.564 0.564 0.5
    -0.032 0.468 0.5
    0.468 -0.032 0.5
    0.468 0.468 0.0
