optcell 2
ionmov 2
ntime 60

prtwf 1
getwfk -1
prtden 0

ecut 63.0
ecutsm 3.0
dilatmx 1.2
ixc 23

acell 3*4.4 angstrom

rprim  1 0 0
       0 1 0
       0 0 1

#Definition of the atom types
ntypat 3
znucl 56 22 8

#Definition of the atoms
natom 5
typat 1*1 1*2 3*3

#Definition of the k-point grid
kptopt 1
ngkpt  8 8 8
nshiftk 1
shiftk 0.5 0.5 0.5

#Definition of the SCF procedure
nstep 80
toldff 5.0d-7
diemac 12.0

ndtset 40

xred1
    0.00065 0.00065 0.00065
    0.5013 0.5013 0.5013
    -0.00065 0.49935 0.49935
    0.49935 -0.00065 0.49935
    0.49935 0.49935 -0.00065

xred2
    0.0013 0.0013 0.0013
    0.5026 0.5026 0.5026
    -0.0013 0.4987 0.4987
    0.4987 -0.0013 0.4987
    0.4987 0.4987 -0.0013

xred3
    0.00195 0.00195 0.00195
    0.5039 0.5039 0.5039
    -0.00195 0.49805 0.49805
    0.49805 -0.00195 0.49805
    0.49805 0.49805 -0.00195

xred4
    0.0026 0.0026 0.0026
    0.5052 0.5052 0.5052
    -0.0026 0.4974 0.4974
    0.4974 -0.0026 0.4974
    0.4974 0.4974 -0.0026

xred5
    0.00325 0.00325 0.00325
    0.5065 0.5065 0.5065
    -0.00325 0.49675 0.49675
    0.49675 -0.00325 0.49675
    0.49675 0.49675 -0.00325

xred6
    0.0039 0.0039 0.0039
    0.5078 0.5078 0.5078
    -0.0039 0.4961 0.4961
    0.4961 -0.0039 0.4961
    0.4961 0.4961 -0.0039

xred7
    0.00455 0.00455 0.00455
    0.5091 0.5091 0.5091
    -0.00455 0.49545 0.49545
    0.49545 -0.00455 0.49545
    0.49545 0.49545 -0.00455

xred8
    0.0052 0.0052 0.0052
    0.5104 0.5104 0.5104
    -0.0052 0.4948 0.4948
    0.4948 -0.0052 0.4948
    0.4948 0.4948 -0.0052

xred9
    0.00585 0.00585 0.00585
    0.5117 0.5117 0.5117
    -0.00585 0.49415 0.49415
    0.49415 -0.00585 0.49415
    0.49415 0.49415 -0.00585

xred10
    0.0065 0.0065 0.0065
    0.513 0.513 0.513
    -0.0065 0.4935 0.4935
    0.4935 -0.0065 0.4935
    0.4935 0.4935 -0.0065

xred11
    0.00715 0.00715 0.00715
    0.5143 0.5143 0.5143
    -0.00715 0.49285 0.49285
    0.49285 -0.00715 0.49285
    0.49285 0.49285 -0.00715

xred12
    0.0078 0.0078 0.0078
    0.5156 0.5156 0.5156
    -0.0078 0.4922 0.4922
    0.4922 -0.0078 0.4922
    0.4922 0.4922 -0.0078

xred13
    0.00845 0.00845 0.00845
    0.5169 0.5169 0.5169
    -0.00845 0.49155 0.49155
    0.49155 -0.00845 0.49155
    0.49155 0.49155 -0.00845

xred14
    0.0091 0.0091 0.0091
    0.5182 0.5182 0.5182
    -0.0091 0.4909 0.4909
    0.4909 -0.0091 0.4909
    0.4909 0.4909 -0.0091

xred15
    0.00975 0.00975 0.00975
    0.5195 0.5195 0.5195
    -0.00975 0.49025 0.49025
    0.49025 -0.00975 0.49025
    0.49025 0.49025 -0.00975

xred16
    0.0104 0.0104 0.0104
    0.5208 0.5208 0.5208
    -0.0104 0.4896 0.4896
    0.4896 -0.0104 0.4896
    0.4896 0.4896 -0.0104

xred17
    0.01105 0.01105 0.01105
    0.5221 0.5221 0.5221
    -0.01105 0.48895 0.48895
    0.48895 -0.01105 0.48895
    0.48895 0.48895 -0.01105

xred18
    0.0117 0.0117 0.0117
    0.5234 0.5234 0.5234
    -0.0117 0.4883 0.4883
    0.4883 -0.0117 0.4883
    0.4883 0.4883 -0.0117

xred19
    0.01235 0.01235 0.01235
    0.5247 0.5247 0.5247
    -0.01235 0.48765 0.48765
    0.48765 -0.01235 0.48765
    0.48765 0.48765 -0.01235

xred20
    0.013 0.013 0.013
    0.526 0.526 0.526
    -0.013 0.487 0.487
    0.487 -0.013 0.487
    0.487 0.487 -0.013

xred21
    0.01365 0.01365 0.01365
    0.5273 0.5273 0.5273
    -0.01365 0.48635 0.48635
    0.48635 -0.01365 0.48635
    0.48635 0.48635 -0.01365

xred22
    0.0143 0.0143 0.0143
    0.5286 0.5286 0.5286
    -0.0143 0.4857 0.4857
    0.4857 -0.0143 0.4857
    0.4857 0.4857 -0.0143

xred23
    0.01495 0.01495 0.01495
    0.5299 0.5299 0.5299
    -0.01495 0.48505 0.48505
    0.48505 -0.01495 0.48505
    0.48505 0.48505 -0.01495

xred24
    0.0156 0.0156 0.0156
    0.5312 0.5312 0.5312
    -0.0156 0.4844 0.4844
    0.4844 -0.0156 0.4844
    0.4844 0.4844 -0.0156

xred25
    0.01625 0.01625 0.01625
    0.5325 0.5325 0.5325
    -0.01625 0.48375 0.48375
    0.48375 -0.01625 0.48375
    0.48375 0.48375 -0.01625

xred26
    0.0169 0.0169 0.0169
    0.5338 0.5338 0.5338
    -0.0169 0.4831 0.4831
    0.4831 -0.0169 0.4831
    0.4831 0.4831 -0.0169

xred27
    0.01755 0.01755 0.01755
    0.5351 0.5351 0.5351
    -0.01755 0.48245 0.48245
    0.48245 -0.01755 0.48245
    0.48245 0.48245 -0.01755

xred28
    0.0182 0.0182 0.0182
    0.5364 0.5364 0.5364
    -0.0182 0.4818 0.4818
    0.4818 -0.0182 0.4818
    0.4818 0.4818 -0.0182

xred29
    0.01885 0.01885 0.01885
    0.5377 0.5377 0.5377
    -0.01885 0.48115 0.48115
    0.48115 -0.01885 0.48115
    0.48115 0.48115 -0.01885

xred30
    0.0195 0.0195 0.0195
    0.539 0.539 0.539
    -0.0195 0.4805 0.4805
    0.4805 -0.0195 0.4805
    0.4805 0.4805 -0.0195

xred31
    0.02015 0.02015 0.02015
    0.5403 0.5403 0.5403
    -0.02015 0.47985 0.47985
    0.47985 -0.02015 0.47985
    0.47985 0.47985 -0.02015

xred32
    0.0208 0.0208 0.0208
    0.5416 0.5416 0.5416
    -0.0208 0.4792 0.4792
    0.4792 -0.0208 0.4792
    0.4792 0.4792 -0.0208

xred33
    0.02145 0.02145 0.02145
    0.5429 0.5429 0.5429
    -0.02145 0.47855 0.47855
    0.47855 -0.02145 0.47855
    0.47855 0.47855 -0.02145

xred34
    0.0221 0.0221 0.0221
    0.5442 0.5442 0.5442
    -0.0221 0.4779 0.4779
    0.4779 -0.0221 0.4779
    0.4779 0.4779 -0.0221

xred35
    0.02275 0.02275 0.02275
    0.5455 0.5455 0.5455
    -0.02275 0.47725 0.47725
    0.47725 -0.02275 0.47725
    0.47725 0.47725 -0.02275

xred36
    0.0234 0.0234 0.0234
    0.5468 0.5468 0.5468
    -0.0234 0.4766 0.4766
    0.4766 -0.0234 0.4766
    0.4766 0.4766 -0.0234

xred37
    0.02405 0.02405 0.02405
    0.5481 0.5481 0.5481
    -0.02405 0.47595 0.47595
    0.47595 -0.02405 0.47595
    0.47595 0.47595 -0.02405

xred38
    0.0247 0.0247 0.0247
    0.5494 0.5494 0.5494
    -0.0247 0.4753 0.4753
    0.4753 -0.0247 0.4753
    0.4753 0.4753 -0.0247

xred39
    0.02535 0.02535 0.02535
    0.5507 0.5507 0.5507
    -0.02535 0.47465 0.47465
    0.47465 -0.02535 0.47465
    0.47465 0.47465 -0.02535

xred40
    0.026 0.026 0.026
    0.552 0.552 0.552
    -0.026 0.474 0.474
    0.474 -0.026 0.474
    0.474 0.474 -0.026
