optcell 2
ionmov 2
ntime 60

prtwf 1
getwfk -1
prtden 0

ecut 63.0
ecutsm 3.0
dilatmx 1.2
ixc 23

acell 7.5 7.5 8.5

rprim  1 0 0
       0 1 0
       0 0 1

#Definition of the atom types
ntypat 3
znucl 56 22 8

#Definition of the atoms
natom 5
typat 1*1 1*2 3*3

#Definition of the k-point grid
kptopt 1
ngkpt  8 8 8
nshiftk 1
shiftk 0.5 0.5 0.5

#Definition of the SCF procedure
nstep 80
toldff 5.0d-7
diemac 12.0

ndtset 40

xred1
    0.0 0.0 0.0015
    0.5 0.5 0.503
    0.0 0.5 0.4985
    0.5 0.0 0.4985
    0.5 0.5 -0.0015

xred2
    0.0 0.0 0.003
    0.5 0.5 0.506
    0.0 0.5 0.497
    0.5 0.0 0.497
    0.5 0.5 -0.003

xred3
    0.0 0.0 0.0045
    0.5 0.5 0.509
    0.0 0.5 0.4955
    0.5 0.0 0.4955
    0.5 0.5 -0.0045

xred4
    0.0 0.0 0.006
    0.5 0.5 0.512
    0.0 0.5 0.494
    0.5 0.0 0.494
    0.5 0.5 -0.006

xred5
    0.0 0.0 0.0075
    0.5 0.5 0.515
    0.0 0.5 0.4925
    0.5 0.0 0.4925
    0.5 0.5 -0.0075

xred6
    0.0 0.0 0.009
    0.5 0.5 0.518
    0.0 0.5 0.491
    0.5 0.0 0.491
    0.5 0.5 -0.009

xred7
    0.0 0.0 0.0105
    0.5 0.5 0.521
    0.0 0.5 0.4895
    0.5 0.0 0.4895
    0.5 0.5 -0.0105

xred8
    0.0 0.0 0.012
    0.5 0.5 0.524
    0.0 0.5 0.488
    0.5 0.0 0.488
    0.5 0.5 -0.012

xred9
    0.0 0.0 0.0135
    0.5 0.5 0.527
    0.0 0.5 0.4865
    0.5 0.0 0.4865
    0.5 0.5 -0.0135

xred10
    0.0 0.0 0.015
    0.5 0.5 0.53
    0.0 0.5 0.485
    0.5 0.0 0.485
    0.5 0.5 -0.015

xred11
    0.0 0.0 0.0165
    0.5 0.5 0.533
    0.0 0.5 0.4835
    0.5 0.0 0.4835
    0.5 0.5 -0.0165

xred12
    0.0 0.0 0.018
    0.5 0.5 0.536
    0.0 0.5 0.482
    0.5 0.0 0.482
    0.5 0.5 -0.018

xred13
    0.0 0.0 0.0195
    0.5 0.5 0.539
    0.0 0.5 0.4805
    0.5 0.0 0.4805
    0.5 0.5 -0.0195

xred14
    0.0 0.0 0.021
    0.5 0.5 0.542
    0.0 0.5 0.479
    0.5 0.0 0.479
    0.5 0.5 -0.021

xred15
    0.0 0.0 0.0225
    0.5 0.5 0.545
    0.0 0.5 0.4775
    0.5 0.0 0.4775
    0.5 0.5 -0.0225

xred16
    0.0 0.0 0.024
    0.5 0.5 0.548
    0.0 0.5 0.476
    0.5 0.0 0.476
    0.5 0.5 -0.024

xred17
    0.0 0.0 0.0255
    0.5 0.5 0.551
    0.0 0.5 0.4745
    0.5 0.0 0.4745
    0.5 0.5 -0.0255

xred18
    0.0 0.0 0.027
    0.5 0.5 0.554
    0.0 0.5 0.473
    0.5 0.0 0.473
    0.5 0.5 -0.027

xred19
    0.0 0.0 0.0285
    0.5 0.5 0.557
    0.0 0.5 0.4715
    0.5 0.0 0.4715
    0.5 0.5 -0.0285

xred20
    0.0 0.0 0.03
    0.5 0.5 0.56
    0.0 0.5 0.47
    0.5 0.0 0.47
    0.5 0.5 -0.03

xred21
    0.0 0.0 0.0315
    0.5 0.5 0.563
    0.0 0.5 0.4685
    0.5 0.0 0.4685
    0.5 0.5 -0.0315

xred22
    0.0 0.0 0.033
    0.5 0.5 0.566
    0.0 0.5 0.467
    0.5 0.0 0.467
    0.5 0.5 -0.033

xred23
    0.0 0.0 0.0345
    0.5 0.5 0.569
    0.0 0.5 0.4655
    0.5 0.0 0.4655
    0.5 0.5 -0.0345

xred24
    0.0 0.0 0.036
    0.5 0.5 0.572
    0.0 0.5 0.464
    0.5 0.0 0.464
    0.5 0.5 -0.036

xred25
    0.0 0.0 0.0375
    0.5 0.5 0.575
    0.0 0.5 0.4625
    0.5 0.0 0.4625
    0.5 0.5 -0.0375

xred26
    0.0 0.0 0.039
    0.5 0.5 0.578
    0.0 0.5 0.461
    0.5 0.0 0.461
    0.5 0.5 -0.039

xred27
    0.0 0.0 0.0405
    0.5 0.5 0.581
    0.0 0.5 0.4595
    0.5 0.0 0.4595
    0.5 0.5 -0.0405

xred28
    0.0 0.0 0.042
    0.5 0.5 0.584
    0.0 0.5 0.458
    0.5 0.0 0.458
    0.5 0.5 -0.042

xred29
    0.0 0.0 0.0435
    0.5 0.5 0.587
    0.0 0.5 0.4565
    0.5 0.0 0.4565
    0.5 0.5 -0.0435

xred30
    0.0 0.0 0.045
    0.5 0.5 0.59
    0.0 0.5 0.455
    0.5 0.0 0.455
    0.5 0.5 -0.045

xred31
    0.0 0.0 0.0465
    0.5 0.5 0.593
    0.0 0.5 0.4535
    0.5 0.0 0.4535
    0.5 0.5 -0.0465

xred32
    0.0 0.0 0.048
    0.5 0.5 0.596
    0.0 0.5 0.452
    0.5 0.0 0.452
    0.5 0.5 -0.048

xred33
    0.0 0.0 0.0495
    0.5 0.5 0.599
    0.0 0.5 0.4505
    0.5 0.0 0.4505
    0.5 0.5 -0.0495

xred34
    0.0 0.0 0.051
    0.5 0.5 0.602
    0.0 0.5 0.449
    0.5 0.0 0.449
    0.5 0.5 -0.051

xred35
    0.0 0.0 0.0525
    0.5 0.5 0.605
    0.0 0.5 0.4475
    0.5 0.0 0.4475
    0.5 0.5 -0.0525

xred36
    0.0 0.0 0.054
    0.5 0.5 0.608
    0.0 0.5 0.446
    0.5 0.0 0.446
    0.5 0.5 -0.054

xred37
    0.0 0.0 0.0555
    0.5 0.5 0.611
    0.0 0.5 0.4445
    0.5 0.0 0.4445
    0.5 0.5 -0.0555

xred38
    0.0 0.0 0.057
    0.5 0.5 0.614
    0.0 0.5 0.443
    0.5 0.0 0.443
    0.5 0.5 -0.057

xred39
    0.0 0.0 0.0585
    0.5 0.5 0.617
    0.0 0.5 0.4415
    0.5 0.0 0.4415
    0.5 0.5 -0.0585

xred40
    0.0 0.0 0.06
    0.5 0.5 0.62
    0.0 0.5 0.44
    0.5 0.0 0.44
    0.5 0.5 -0.06
