prtwf 1
getwfk -1
prtden 0

ecut 63.0
ecutsm 3.0
dilatmx 1.2
ixc 23

acell 15.064738506 2*7.5323692530

rprim  1 0 0
       0 1 0
       0 0 1

#Definition of the atom types
ntypat 3
znucl 56 22 8

#Definition of the atoms
natom 10
typat 1*1 1*2 3*3 1*1 1*2 3*3

#Definition of the k-point grid
kptopt 1
ngkpt  6 8 8
nshiftk 1
shiftk 0.5 0.5 0.5

#Definition of the SCF procedure
nstep 50
toldff 1.0d-8
diemac 12.0

ndtset 15

xred1
    0.002/2 0.0     0.0
    0.5/2   0.5     0.5
    0.0/2   0.5     0.5
    0.5/2   0.0     0.5
    0.5/2   0.5     0.0
    0.998/2 0.0     0.0
    1.5/2   0.5     0.5
    1.0/2   0.5     0.5
    1.5/2   0.0     0.5
    1.5/2   0.5     0.0

xred2
    0.0/2   0.002   0.0
    0.5/2   0.5     0.5
    0.0/2   0.5     0.5
    0.5/2   0.0     0.5
    0.5/2   0.5     0.0
    1.0/2  -0.002   0.0
    1.5/2   0.5     0.5
    1.0/2   0.5     0.5
    1.5/2   0.0     0.5
    1.5/2   0.5     0.0

xred3
    0.0/2   0.0     0.002
    0.5/2   0.5     0.5
    0.0/2   0.5     0.5
    0.5/2   0.0     0.5
    0.5/2   0.5     0.0
    1.0/2   0.0    -0.002
    1.5/2   0.5     0.5
    1.0/2   0.5     0.5
    1.5/2   0.0     0.5
    1.5/2   0.5     0.0

xred4
    0.0/2   0.0     0.0
    0.502/2 0.5     0.5
    0.0/2   0.5     0.5
    0.5/2   0.0     0.5
    0.5/2   0.5     0.0
    1.0/2   0.0     0.0
    1.498/2 0.5     0.5
    1.0/2   0.5     0.5
    1.5/2   0.0     0.5
    1.5/2   0.5     0.0

xred5
    0.0/2    0.0     0.0
    0.5/2    0.502   0.5
    0.0/2    0.5     0.5
    0.5/2    0.0     0.5
    0.5/2    0.5     0.0
    1.0/2    0.0     0.0
    1.5/2    0.498   0.5
    1.0/2    0.5     0.5
    1.5/2    0.0     0.5
    1.5/2    0.5     0.0

xred6
    0.0/2    0.0     0.0
    0.5/2    0.5     0.502
    0.0/2    0.5     0.5
    0.5/2    0.0     0.5
    0.5/2    0.5     0.0
    1.0/2    0.0     0.0
    1.5/2    0.5     0.498
    1.0/2    0.5     0.5
    1.5/2    0.0     0.5
    1.5/2    0.5     0.0

xred7
    0.0/2    0.0     0.0
    0.5/2    0.5     0.5
    0.002/2  0.5     0.5
    0.5/2    0.0     0.5
    0.5/2    0.5     0.0
    1.0/2    0.0     0.0
    1.5/2    0.5     0.5
    0.998/2  0.5     0.5
    1.5/2    0.0     0.5
    1.5/2    0.5     0.0

xred8
    0.0/2    0.0     0.0
    0.5/2    0.5     0.5
    0.0/2    0.502   0.5
    0.5/2    0.0     0.5
    0.5/2    0.5     0.0
    1.0/2    0.0     0.0
    1.5/2    0.5     0.5
    1.0/2    0.498   0.5
    1.5/2    0.0     0.5
    1.5/2    0.5     0.0

xred9
    0.0/2    0.0     0.0
    0.5/2    0.5     0.5
    0.0/2    0.5     0.502
    0.5/2    0.0     0.5
    0.5/2    0.5     0.0
    1.0/2    0.0     0.0
    1.5/2    0.5     0.5
    1.0/2    0.5     0.498
    1.5/2    0.0     0.5
    1.5/2    0.5     0.0

xred10
    0.0/2    0.0     0.0
    0.5/2    0.5     0.5
    0.0/2    0.5     0.5
    0.502/2  0.0     0.5
    0.5/2    0.5     0.0
    1.0/2    0.0     0.0
    1.5/2    0.5     0.5
    1.0/2    0.5     0.5
    1.498/2  0.0     0.5
    1.5/2    0.5     0.0

xred11
    0.0/2    0.0     0.0
    0.5/2    0.5     0.5
    0.0/2    0.5     0.5
    0.5/2    0.002   0.5
    0.5/2    0.5     0.0
    1.0/2    0.0     0.0
    1.5/2    0.5     0.5
    1.0/2    0.5     0.5
    1.5/2   -0.002   0.5
    1.5/2    0.5     0.0

xred12
    0.0/2    0.0     0.0
    0.5/2    0.5     0.5
    0.0/2    0.5     0.5
    0.5/2    0.0     0.502
    0.5/2    0.5     0.0
    1.0/2    0.0     0.0
    1.5/2    0.5     0.5
    1.0/2    0.5     0.5
    1.5/2    0.0     0.498
    1.5/2    0.5     0.0

xred13
    0.0/2    0.0     0.0
    0.5/2    0.5     0.5
    0.0/2    0.5     0.5
    0.5/2    0.0     0.5
    0.502/2  0.5     0.0
    1.0/2    0.0     0.0
    1.5/2    0.5     0.5
    1.0/2    0.5     0.5
    1.5/2    0.0     0.5
    1.498/2  0.5     0.0

xred14
    0.0/2    0.0     0.0
    0.5/2    0.5     0.5
    0.0/2    0.5     0.5
    0.5/2    0.0     0.5
    0.5/2    0.502   0.0
    1.0/2    0.0     0.0
    1.5/2    0.5     0.5
    1.0/2    0.5     0.5
    1.5/2    0.0     0.5
    1.5/2    0.498   0.0

xred15
    0.0/2    0.0     0.0
    0.5/2    0.5     0.5
    0.0/2    0.5     0.5
    0.5/2    0.0     0.5
    0.5/2    0.5     0.002
    1.0/2    0.0     0.0
    1.5/2    0.5     0.5
    1.0/2    0.5     0.5
    1.5/2    0.0     0.5
    1.5/2    0.5    -0.002
