optcell 2
ionmov 2
ntime 15

prtwf 1
getwfk -1
prtden 0

ecut 43.0
ecutsm 3.0
dilatmx 1.2
ixc 3

acell 3*7.4434230817

rprim  1 0 0
       0 1 0
       0 0 1

#Definition of the atom types
ntypat 3
znucl 56 22 8

#Definition of the atoms
natom 5
typat 1*1 1*2 3*3

#Definition of the k-point grid
kptopt 1
ngkpt  8 8 8
nshiftk 1
shiftk 0.5 0.5 0.5

#Definition of the SCF procedure
nstep 45
toldff 5.0d-7
diemac 12.0

ndtset 20

xred1
    0.0 0.0 0.0003
    0.5 0.5 0.5011
    0.0 0.5 0.4994
    0.5 0.0 0.4994
    0.5 0.5 -0.0006

xred2
    0.0 0.0 0.0006
    0.5 0.5 0.5022
    0.0 0.5 0.4988
    0.5 0.0 0.4988
    0.5 0.5 -0.0012

xred3
    0.0 0.0 0.0009
    0.5 0.5 0.5033
    0.0 0.5 0.4982
    0.5 0.0 0.4982
    0.5 0.5 -0.0018

xred4
    0.0 0.0 0.0012
    0.5 0.5 0.5044
    0.0 0.5 0.4976
    0.5 0.0 0.4976
    0.5 0.5 -0.0024

xred5
    0.0 0.0 0.0015
    0.5 0.5 0.5055
    0.0 0.5 0.497
    0.5 0.0 0.497
    0.5 0.5 -0.003

xred6
    0.0 0.0 0.0018
    0.5 0.5 0.5066
    0.0 0.5 0.4964
    0.5 0.0 0.4964
    0.5 0.5 -0.0036

xred7
    0.0 0.0 0.0021
    0.5 0.5 0.5077
    0.0 0.5 0.4958
    0.5 0.0 0.4958
    0.5 0.5 -0.0042

xred8
    0.0 0.0 0.0024
    0.5 0.5 0.5088
    0.0 0.5 0.4952
    0.5 0.0 0.4952
    0.5 0.5 -0.0048

xred9
    0.0 0.0 0.0027
    0.5 0.5 0.5099
    0.0 0.5 0.4946
    0.5 0.0 0.4946
    0.5 0.5 -0.0054

xred10
    0.0 0.0 0.003
    0.5 0.5 0.511
    0.0 0.5 0.494
    0.5 0.0 0.494
    0.5 0.5 -0.006

xred11
    0.0 0.0 0.0033
    0.5 0.5 0.5121
    0.0 0.5 0.4934
    0.5 0.0 0.4934
    0.5 0.5 -0.0066

xred12
    0.0 0.0 0.0036
    0.5 0.5 0.5132
    0.0 0.5 0.4928
    0.5 0.0 0.4928
    0.5 0.5 -0.0072

xred13
    0.0 0.0 0.0039
    0.5 0.5 0.5143
    0.0 0.5 0.4922
    0.5 0.0 0.4922
    0.5 0.5 -0.0078

xred14
    0.0 0.0 0.0042
    0.5 0.5 0.5154
    0.0 0.5 0.4916
    0.5 0.0 0.4916
    0.5 0.5 -0.0084

xred15
    0.0 0.0 0.0045
    0.5 0.5 0.5165
    0.0 0.5 0.491
    0.5 0.0 0.491
    0.5 0.5 -0.009

xred16
    0.0 0.0 0.0048
    0.5 0.5 0.5176
    0.0 0.5 0.4904
    0.5 0.0 0.4904
    0.5 0.5 -0.0096

xred17
    0.0 0.0 0.0051
    0.5 0.5 0.5187
    0.0 0.5 0.4898
    0.5 0.0 0.4898
    0.5 0.5 -0.0102

xred18
    0.0 0.0 0.0054
    0.5 0.5 0.5198
    0.0 0.5 0.4892
    0.5 0.0 0.4892
    0.5 0.5 -0.0108

xred19
    0.0 0.0 0.0057
    0.5 0.5 0.5209
    0.0 0.5 0.4886
    0.5 0.0 0.4886
    0.5 0.5 -0.0114

xred20
    0.0 0.0 0.006
    0.5 0.5 0.522
    0.0 0.5 0.488
    0.5 0.0 0.488
    0.5 0.5 -0.012
