optcell 2
ionmov 2
ntime 15

prtwf 1
getwfk -1
prtden 0

ecut 43.0
ecutsm 3.0
dilatmx 1.1
ixc 3

acell 3*7.4434230817

rprim  1 0 0
       0 1 0
       0 0 1

#Definition of the atom types
ntypat 3
znucl 56 22 8

#Definition of the atoms
natom 5
typat 1*1 1*2 3*3

#Definition of the k-point grid
kptopt 1
ngkpt  8 8 8
nshiftk 1
shiftk 0.5 0.5 0.5

#Definition of the SCF procedure
nstep 45
toldff 5.0d-7
diemac 12.0

ndtset 20

xred1
    0.00015 0.00015 0.00015
    0.5006 0.5006 0.5006
    -0.0003 0.4997 0.4997
    0.4997 -0.0003 0.4997
    0.4997 0.4997 -0.0003

xred2
    0.0003 0.0003 0.0003
    0.5012 0.5012 0.5012
    -0.0006 0.4994 0.4994
    0.4994 -0.0006 0.4994
    0.4994 0.4994 -0.0006

xred3
    0.00045 0.00045 0.00045
    0.5018 0.5018 0.5018
    -0.0009 0.4991 0.4991
    0.4991 -0.0009 0.4991
    0.4991 0.4991 -0.0009

xred4
    0.0006 0.0006 0.0006
    0.5024 0.5024 0.5024
    -0.0012 0.4988 0.4988
    0.4988 -0.0012 0.4988
    0.4988 0.4988 -0.0012

xred5
    0.00075 0.00075 0.00075
    0.503 0.503 0.503
    -0.0015 0.4985 0.4985
    0.4985 -0.0015 0.4985
    0.4985 0.4985 -0.0015

xred6
    0.0009 0.0009 0.0009
    0.5036 0.5036 0.5036
    -0.0018 0.4982 0.4982
    0.4982 -0.0018 0.4982
    0.4982 0.4982 -0.0018

xred7
    0.00105 0.00105 0.00105
    0.5042 0.5042 0.5042
    -0.0021 0.4979 0.4979
    0.4979 -0.0021 0.4979
    0.4979 0.4979 -0.0021

xred8
    0.0012 0.0012 0.0012
    0.5048 0.5048 0.5048
    -0.0024 0.4976 0.4976
    0.4976 -0.0024 0.4976
    0.4976 0.4976 -0.0024

xred9
    0.00135 0.00135 0.00135
    0.5054 0.5054 0.5054
    -0.0027 0.4973 0.4973
    0.4973 -0.0027 0.4973
    0.4973 0.4973 -0.0027

xred10
    0.0015 0.0015 0.0015
    0.506 0.506 0.506
    -0.003 0.497 0.497
    0.497 -0.003 0.497
    0.497 0.497 -0.003

xred11
    0.00165 0.00165 0.00165
    0.5066 0.5066 0.5066
    -0.0033 0.4967 0.4967
    0.4967 -0.0033 0.4967
    0.4967 0.4967 -0.0033

xred12
    0.0018 0.0018 0.0018
    0.5072 0.5072 0.5072
    -0.0036 0.4964 0.4964
    0.4964 -0.0036 0.4964
    0.4964 0.4964 -0.0036

xred13
    0.00195 0.00195 0.00195
    0.5078 0.5078 0.5078
    -0.0039 0.4961 0.4961
    0.4961 -0.0039 0.4961
    0.4961 0.4961 -0.0039

xred14
    0.0021 0.0021 0.0021
    0.5084 0.5084 0.5084
    -0.0042 0.4958 0.4958
    0.4958 -0.0042 0.4958
    0.4958 0.4958 -0.0042

xred15
    0.00225 0.00225 0.00225
    0.509 0.509 0.509
    -0.0045 0.4955 0.4955
    0.4955 -0.0045 0.4955
    0.4955 0.4955 -0.0045

xred16
    0.0024 0.0024 0.0024
    0.5096 0.5096 0.5096
    -0.0048 0.4952 0.4952
    0.4952 -0.0048 0.4952
    0.4952 0.4952 -0.0048

xred17
    0.00255 0.00255 0.00255
    0.5102 0.5102 0.5102
    -0.0051 0.4949 0.4949
    0.4949 -0.0051 0.4949
    0.4949 0.4949 -0.0051

xred18
    0.0027 0.0027 0.0027
    0.5108 0.5108 0.5108
    -0.0054 0.4946 0.4946
    0.4946 -0.0054 0.4946
    0.4946 0.4946 -0.0054

xred19
    0.00285 0.00285 0.00285
    0.5114 0.5114 0.5114
    -0.0057 0.4943 0.4943
    0.4943 -0.0057 0.4943
    0.4943 0.4943 -0.0057

xred20
    0.003 0.003 0.003
    0.512 0.512 0.512
    -0.006 0.494 0.494
    0.494 -0.006 0.494
    0.494 0.494 -0.006
