optcell 0
ionmov 2
ntime 15

prtwf 1
getwfk -1
prtden 0

ecut 43.0
ecutsm 3.0

ixc 3

acell 3*7.4434230817

rprim  1 0 0
       0 1 0
       0 0 1

#Definition of the atom types
ntypat 3
znucl 56 22 8

#Definition of the atoms
natom 5
typat 1*1 1*2 3*3

#Definition of the k-point grid
kptopt 1
ngkpt  8 8 8
nshiftk 1
shiftk 0.5 0.5 0.5

#Definition of the SCF procedure
nstep 45
toldff 5.0d-7
diemac 12.0

ndtset 20

xred1
    0.0 0.0 0.0002
    0.5 0.5 0.5007
    0.0 0.5 0.4996
    0.5 0.0 0.4996
    0.5 0.5 -0.0004

xred2
    0.0 0.0 0.0004
    0.5 0.5 0.5014
    0.0 0.5 0.4992
    0.5 0.0 0.4992
    0.5 0.5 -0.0008

xred3
    0.0 0.0 0.0006
    0.5 0.5 0.5021
    0.0 0.5 0.4988
    0.5 0.0 0.4988
    0.5 0.5 -0.0012

xred4
    0.0 0.0 0.0008
    0.5 0.5 0.5028
    0.0 0.5 0.4984
    0.5 0.0 0.4984
    0.5 0.5 -0.0016

xred5
    0.0 0.0 0.001
    0.5 0.5 0.5035
    0.0 0.5 0.498
    0.5 0.0 0.498
    0.5 0.5 -0.002

xred6
    0.0 0.0 0.0012
    0.5 0.5 0.5042
    0.0 0.5 0.4976
    0.5 0.0 0.4976
    0.5 0.5 -0.0024

xred7
    0.0 0.0 0.0014
    0.5 0.5 0.5049
    0.0 0.5 0.4972
    0.5 0.0 0.4972
    0.5 0.5 -0.0028

xred8
    0.0 0.0 0.0016
    0.5 0.5 0.5056
    0.0 0.5 0.4968
    0.5 0.0 0.4968
    0.5 0.5 -0.0032

xred9
    0.0 0.0 0.0018
    0.5 0.5 0.5063
    0.0 0.5 0.4964
    0.5 0.0 0.4964
    0.5 0.5 -0.0036

xred10
    0.0 0.0 0.002
    0.5 0.5 0.507
    0.0 0.5 0.496
    0.5 0.0 0.496
    0.5 0.5 -0.004

xred11
    0.0 0.0 0.0022
    0.5 0.5 0.5077
    0.0 0.5 0.4956
    0.5 0.0 0.4956
    0.5 0.5 -0.0044

xred12
    0.0 0.0 0.0024
    0.5 0.5 0.5084
    0.0 0.5 0.4952
    0.5 0.0 0.4952
    0.5 0.5 -0.0048

xred13
    0.0 0.0 0.0026
    0.5 0.5 0.5091
    0.0 0.5 0.4948
    0.5 0.0 0.4948
    0.5 0.5 -0.0052

xred14
    0.0 0.0 0.0028
    0.5 0.5 0.5098
    0.0 0.5 0.4944
    0.5 0.0 0.4944
    0.5 0.5 -0.0056

xred15
    0.0 0.0 0.003
    0.5 0.5 0.5105
    0.0 0.5 0.494
    0.5 0.0 0.494
    0.5 0.5 -0.006

xred16
    0.0 0.0 0.0032
    0.5 0.5 0.5112
    0.0 0.5 0.4936
    0.5 0.0 0.4936
    0.5 0.5 -0.0064

xred17
    0.0 0.0 0.0034
    0.5 0.5 0.5119
    0.0 0.5 0.4932
    0.5 0.0 0.4932
    0.5 0.5 -0.0068

xred18
    0.0 0.0 0.0036
    0.5 0.5 0.5126
    0.0 0.5 0.4928
    0.5 0.0 0.4928
    0.5 0.5 -0.0072

xred19
    0.0 0.0 0.0038
    0.5 0.5 0.5133
    0.0 0.5 0.4924
    0.5 0.0 0.4924
    0.5 0.5 -0.0076

xred20
    0.0 0.0 0.004
    0.5 0.5 0.514
    0.0 0.5 0.492
    0.5 0.0 0.492
    0.5 0.5 -0.008
