optcell 0
ionmov 2
ntime 15

prtwf 1
getwfk -1
prtden 0

ecut 43.0
ecutsm 3.0
dilatmx 1.1
ixc 3

acell 3*7.4434230817

rprim  1 0 0
       0 1 0
       0 0 1

#Definition of the atom types
ntypat 3
znucl 56 22 8

#Definition of the atoms
natom 5
typat 1*1 1*2 3*3

#Definition of the k-point grid
kptopt 1
ngkpt  8 8 8
nshiftk 1
shiftk 0.5 0.5 0.5

#Definition of the SCF procedure
nstep 45
toldff 5.0d-7
diemac 12.0

ndtset 20

xred1
    0.00013 0.00013 0.00013
    0.5005 0.5005 0.5005
    -0.00025 0.49975 0.49975
    0.49975 -0.00025 0.49975
    0.49975 0.49975 -0.00025

xred2
    0.00026 0.00026 0.00026
    0.501 0.501 0.501
    -0.0005 0.4995 0.4995
    0.4995 -0.0005 0.4995
    0.4995 0.4995 -0.0005

xred3
    0.00039 0.00039 0.00039
    0.5015 0.5015 0.5015
    -0.00075 0.49925 0.49925
    0.49925 -0.00075 0.49925
    0.49925 0.49925 -0.00075

xred4
    0.00052 0.00052 0.00052
    0.502 0.502 0.502
    -0.001 0.499 0.499
    0.499 -0.001 0.499
    0.499 0.499 -0.001

xred5
    0.00065 0.00065 0.00065
    0.5025 0.5025 0.5025
    -0.00125 0.49875 0.49875
    0.49875 -0.00125 0.49875
    0.49875 0.49875 -0.00125

xred6
    0.00078 0.00078 0.00078
    0.503 0.503 0.503
    -0.0015 0.4985 0.4985
    0.4985 -0.0015 0.4985
    0.4985 0.4985 -0.0015

xred7
    0.00091 0.00091 0.00091
    0.5035 0.5035 0.5035
    -0.00175 0.49825 0.49825
    0.49825 -0.00175 0.49825
    0.49825 0.49825 -0.00175

xred8
    0.00104 0.00104 0.00104
    0.504 0.504 0.504
    -0.002 0.498 0.498
    0.498 -0.002 0.498
    0.498 0.498 -0.002

xred9
    0.00117 0.00117 0.00117
    0.5045 0.5045 0.5045
    -0.00225 0.49775 0.49775
    0.49775 -0.00225 0.49775
    0.49775 0.49775 -0.00225

xred10
    0.0013 0.0013 0.0013
    0.505 0.505 0.505
    -0.0025 0.4975 0.4975
    0.4975 -0.0025 0.4975
    0.4975 0.4975 -0.0025

xred11
    0.00143 0.00143 0.00143
    0.5055 0.5055 0.5055
    -0.00275 0.49725 0.49725
    0.49725 -0.00275 0.49725
    0.49725 0.49725 -0.00275

xred12
    0.00156 0.00156 0.00156
    0.506 0.506 0.506
    -0.003 0.497 0.497
    0.497 -0.003 0.497
    0.497 0.497 -0.003

xred13
    0.00169 0.00169 0.00169
    0.5065 0.5065 0.5065
    -0.00325 0.49675 0.49675
    0.49675 -0.00325 0.49675
    0.49675 0.49675 -0.00325

xred14
    0.00182 0.00182 0.00182
    0.507 0.507 0.507
    -0.0035 0.4965 0.4965
    0.4965 -0.0035 0.4965
    0.4965 0.4965 -0.0035

xred15
    0.00195 0.00195 0.00195
    0.5075 0.5075 0.5075
    -0.00375 0.49625 0.49625
    0.49625 -0.00375 0.49625
    0.49625 0.49625 -0.00375

xred16
    0.00208 0.00208 0.00208
    0.508 0.508 0.508
    -0.004 0.496 0.496
    0.496 -0.004 0.496
    0.496 0.496 -0.004

xred17
    0.00221 0.00221 0.00221
    0.5085 0.5085 0.5085
    -0.00425 0.49575 0.49575
    0.49575 -0.00425 0.49575
    0.49575 0.49575 -0.00425

xred18
    0.00234 0.00234 0.00234
    0.509 0.509 0.509
    -0.0045 0.4955 0.4955
    0.4955 -0.0045 0.4955
    0.4955 0.4955 -0.0045

xred19
    0.00247 0.00247 0.00247
    0.5095 0.5095 0.5095
    -0.00475 0.49525 0.49525
    0.49525 -0.00475 0.49525
    0.49525 0.49525 -0.00475

xred20
    0.0026 0.0026 0.0026
    0.51 0.51 0.51
    -0.005 0.495 0.495
    0.495 -0.005 0.495
    0.495 0.495 -0.005
