optcell 2
ionmov 2
ntime 15

prtwf 1
getwfk -1
prtden 0

ecut 43.0
ecutsm 3.0
dilatmx 1.2
ixc 3

acell 3*7.4434230817

rprim  1 0 0
       0 1 0
       0 0 1

#Definition of the atom types
ntypat 3
znucl 56 22 8

#Definition of the atoms
natom 5
typat 1*1 1*2 3*3

#Definition of the k-point grid
kptopt 1
ngkpt  8 8 8
nshiftk 1
shiftk 0.5 0.5 0.5

#Definition of the SCF procedure
nstep 45
toldff 5.0d-7
diemac 12.0

ndtset 20

xred1
    0.0002 0.0002 0.0
    0.5008 0.5008 0.5
    -0.0004 0.4996 0.5
    0.4996 -0.0004 0.5
    0.4996 0.4996 0.0

xred2
    0.0004 0.0004 0.0
    0.5016 0.5016 0.5
    -0.0008 0.4992 0.5
    0.4992 -0.0008 0.5
    0.4992 0.4992 0.0

xred3
    0.0006 0.0006 0.0
    0.5024 0.5024 0.5
    -0.0012 0.4988 0.5
    0.4988 -0.0012 0.5
    0.4988 0.4988 0.0

xred4
    0.0008 0.0008 0.0
    0.5032 0.5032 0.5
    -0.0016 0.4984 0.5
    0.4984 -0.0016 0.5
    0.4984 0.4984 0.0

xred5
    0.001 0.001 0.0
    0.504 0.504 0.5
    -0.002 0.498 0.5
    0.498 -0.002 0.5
    0.498 0.498 0.0

xred6
    0.0012 0.0012 0.0
    0.5048 0.5048 0.5
    -0.0024 0.4976 0.5
    0.4976 -0.0024 0.5
    0.4976 0.4976 0.0

xred7
    0.0014 0.0014 0.0
    0.5056 0.5056 0.5
    -0.0028 0.4972 0.5
    0.4972 -0.0028 0.5
    0.4972 0.4972 0.0

xred8
    0.0016 0.0016 0.0
    0.5064 0.5064 0.5
    -0.0032 0.4968 0.5
    0.4968 -0.0032 0.5
    0.4968 0.4968 0.0

xred9
    0.0018 0.0018 0.0
    0.5072 0.5072 0.5
    -0.0036 0.4964 0.5
    0.4964 -0.0036 0.5
    0.4964 0.4964 0.0

xred10
    0.002 0.002 0.0
    0.508 0.508 0.5
    -0.004 0.496 0.5
    0.496 -0.004 0.5
    0.496 0.496 0.0

xred11
    0.0022 0.0022 0.0
    0.5088 0.5088 0.5
    -0.0044 0.4956 0.5
    0.4956 -0.0044 0.5
    0.4956 0.4956 0.0

xred12
    0.0024 0.0024 0.0
    0.5096 0.5096 0.5
    -0.0048 0.4952 0.5
    0.4952 -0.0048 0.5
    0.4952 0.4952 0.0

xred13
    0.0026 0.0026 0.0
    0.5104 0.5104 0.5
    -0.0052 0.4948 0.5
    0.4948 -0.0052 0.5
    0.4948 0.4948 0.0

xred14
    0.0028 0.0028 0.0
    0.5112 0.5112 0.5
    -0.0056 0.4944 0.5
    0.4944 -0.0056 0.5
    0.4944 0.4944 0.0

xred15
    0.003 0.003 0.0
    0.512 0.512 0.5
    -0.006 0.494 0.5
    0.494 -0.006 0.5
    0.494 0.494 0.0

xred16
    0.0032 0.0032 0.0
    0.5128 0.5128 0.5
    -0.0064 0.4936 0.5
    0.4936 -0.0064 0.5
    0.4936 0.4936 0.0

xred17
    0.0034 0.0034 0.0
    0.5136 0.5136 0.5
    -0.0068 0.4932 0.5
    0.4932 -0.0068 0.5
    0.4932 0.4932 0.0

xred18
    0.0036 0.0036 0.0
    0.5144 0.5144 0.5
    -0.0072 0.4928 0.5
    0.4928 -0.0072 0.5
    0.4928 0.4928 0.0

xred19
    0.0038 0.0038 0.0
    0.5152 0.5152 0.5
    -0.0076 0.4924 0.5
    0.4924 -0.0076 0.5
    0.4924 0.4924 0.0

xred20
    0.004 0.004 0.0
    0.516 0.516 0.5
    -0.008 0.492 0.5
    0.492 -0.008 0.5
    0.492 0.492 0.0
