optcell 2
ionmov 2
ntime 15

prtwf 1
getwfk -1
prtden 0

ecut 63.0
ecutsm 3.0
dilatmx 1.1
ixc 3

acell 3*7.4419883555

rprim  1 0 0
       0 1 0
       0 0 1

#Definition of the atom types
ntypat 3
znucl 56 22 8

#Definition of the atoms
natom 5
typat 1*1 1*2 3*3

#Definition of the k-point grid
kptopt 1
ngkpt  8 8 8
nshiftk 1
shiftk 0.5 0.5 0.5

#Definition of the SCF procedure
nstep 45
toldff 5.0d-7
diemac 12.0

ndtset 20

xred1
    0.00018 0.00018 0.0
    0.50072 0.50072 0.5
    -0.00036 0.49964 0.5
    0.49964 -0.00036 0.5
    0.49964 0.49964 0.0

xred2
    0.00036 0.00036 0.0
    0.50144 0.50144 0.5
    -0.00072 0.49928 0.5
    0.49928 -0.00072 0.5
    0.49928 0.49928 0.0

xred3
    0.00054 0.00054 0.0
    0.50216 0.50216 0.5
    -0.00108 0.49892 0.5
    0.49892 -0.00108 0.5
    0.49892 0.49892 0.0

xred4
    0.00072 0.00072 0.0
    0.50288 0.50288 0.5
    -0.00144 0.49856 0.5
    0.49856 -0.00144 0.5
    0.49856 0.49856 0.0

xred5
    0.0009 0.0009 0.0
    0.5036 0.5036 0.5
    -0.0018 0.4982 0.5
    0.4982 -0.0018 0.5
    0.4982 0.4982 0.0

xred6
    0.00108 0.00108 0.0
    0.50432 0.50432 0.5
    -0.00216 0.49784 0.5
    0.49784 -0.00216 0.5
    0.49784 0.49784 0.0

xred7
    0.00126 0.00126 0.0
    0.50504 0.50504 0.5
    -0.00252 0.49748 0.5
    0.49748 -0.00252 0.5
    0.49748 0.49748 0.0

xred8
    0.00144 0.00144 0.0
    0.50576 0.50576 0.5
    -0.00288 0.49712 0.5
    0.49712 -0.00288 0.5
    0.49712 0.49712 0.0

xred9
    0.00162 0.00162 0.0
    0.50648 0.50648 0.5
    -0.00324 0.49676 0.5
    0.49676 -0.00324 0.5
    0.49676 0.49676 0.0

xred10
    0.0018 0.0018 0.0
    0.5072 0.5072 0.5
    -0.0036 0.4964 0.5
    0.4964 -0.0036 0.5
    0.4964 0.4964 0.0

xred11
    0.00198 0.00198 0.0
    0.50792 0.50792 0.5
    -0.00396 0.49604 0.5
    0.49604 -0.00396 0.5
    0.49604 0.49604 0.0

xred12
    0.00216 0.00216 0.0
    0.50864 0.50864 0.5
    -0.00432 0.49568 0.5
    0.49568 -0.00432 0.5
    0.49568 0.49568 0.0

xred13
    0.00234 0.00234 0.0
    0.50936 0.50936 0.5
    -0.00468 0.49532 0.5
    0.49532 -0.00468 0.5
    0.49532 0.49532 0.0

xred14
    0.00252 0.00252 0.0
    0.51008 0.51008 0.5
    -0.00504 0.49496 0.5
    0.49496 -0.00504 0.5
    0.49496 0.49496 0.0

xred15
    0.0027 0.0027 0.0
    0.5108 0.5108 0.5
    -0.0054 0.4946 0.5
    0.4946 -0.0054 0.5
    0.4946 0.4946 0.0

xred16
    0.00288 0.00288 0.0
    0.51152 0.51152 0.5
    -0.00576 0.49424 0.5
    0.49424 -0.00576 0.5
    0.49424 0.49424 0.0

xred17
    0.00306 0.00306 0.0
    0.51224 0.51224 0.5
    -0.00612 0.49388 0.5
    0.49388 -0.00612 0.5
    0.49388 0.49388 0.0

xred18
    0.00324 0.00324 0.0
    0.51296 0.51296 0.5
    -0.00648 0.49352 0.5
    0.49352 -0.00648 0.5
    0.49352 0.49352 0.0

xred19
    0.00342 0.00342 0.0
    0.51368 0.51368 0.5
    -0.00684 0.49316 0.5
    0.49316 -0.00684 0.5
    0.49316 0.49316 0.0

xred20
    0.0036 0.0036 0.0
    0.5144 0.5144 0.5
    -0.0072 0.4928 0.5
    0.4928 -0.0072 0.5
    0.4928 0.4928 0.0
