prtwf 1
getwfk -1
prtden 0

ecut 63.0 
ecutsm 3.0
dilatmx 1.1
ixc 3

acell 3*7.4419883555

rprim  1 0 0
       0 1 0
       0 0 1

#Definition of the atom types
ntypat 3
znucl 56 22 8

#Definition of the atoms
natom 5
typat 1*1 1*2 3*3

#Definition of the k-point grid
kptopt 1
ngkpt  8 8 8
nshiftk 1
shiftk 0.5 0.5 0.5

#Definition of the SCF procedure
nstep 50
toldff 1.0d-8
diemac 12.0

ndtset 5

xred1
    0.0 0.0  0.002
    0.5 0.5  0.5
    0.0 0.5  0.5
    0.5 0.0  0.5
    0.5 0.5  0.0

xred2
    0.0 0.0  0.0
    0.5 0.5  0.502
    0.0 0.5  0.5
    0.5 0.0  0.5
    0.5 0.5  0.0

xred3
    0.0 0.0  0.0
    0.5 0.5  0.5
    0.0 0.5  0.502
    0.5 0.0  0.5
    0.5 0.5  0.0

xred4
    0.0 0.0  0.0
    0.5 0.5  0.5
    0.0 0.5  0.5
    0.5 0.0  0.502
    0.5 0.5  0.0

xred5
    0.0 0.0  0.0
    0.5 0.5  0.5
    0.0 0.5  0.5
    0.5 0.0  0.5
    0.5 0.5  0.002
