optcell 2
ionmov 2
ntime 15

prtwf 1
getwfk -1
prtden 0

ecut 63.0
ecutsm 3.0
dilatmx 1.1
ixc 3

acell 3*7.4419883555

rprim  1 0 0
       0 1 0
       0 0 1

#Definition of the atom types
ntypat 3
znucl 56 22 8

#Definition of the atoms
natom 5
typat 1*1 1*2 3*3

#Definition of the k-point grid
kptopt 1
ngkpt  8 8 8
nshiftk 1
shiftk 0.5 0.5 0.5

#Definition of the SCF procedure
nstep 45
toldff 5.0d-7
diemac 12.0

ndtset 20

xred1
    0.0 0.0 0.00024
    0.5 0.5 0.5009
    0.0 0.5 0.4995
    0.5 0.0 0.4995
    0.5 0.5 -0.0005

xred2
    0.0 0.0 0.00048
    0.5 0.5 0.5018
    0.0 0.5 0.499
    0.5 0.0 0.499
    0.5 0.5 -0.001

xred3
    0.0 0.0 0.00072
    0.5 0.5 0.5027
    0.0 0.5 0.4985
    0.5 0.0 0.4985
    0.5 0.5 -0.0015

xred4
    0.0 0.0 0.00096
    0.5 0.5 0.5036
    0.0 0.5 0.498
    0.5 0.0 0.498
    0.5 0.5 -0.002

xred5
    0.0 0.0 0.0012
    0.5 0.5 0.5045
    0.0 0.5 0.4975
    0.5 0.0 0.4975
    0.5 0.5 -0.0025

xred6
    0.0 0.0 0.00144
    0.5 0.5 0.5054
    0.0 0.5 0.497
    0.5 0.0 0.497
    0.5 0.5 -0.003

xred7
    0.0 0.0 0.00168
    0.5 0.5 0.5063
    0.0 0.5 0.4965
    0.5 0.0 0.4965
    0.5 0.5 -0.0035

xred8
    0.0 0.0 0.00192
    0.5 0.5 0.5072
    0.0 0.5 0.496
    0.5 0.0 0.496
    0.5 0.5 -0.004

xred9
    0.0 0.0 0.00216
    0.5 0.5 0.5081
    0.0 0.5 0.4955
    0.5 0.0 0.4955
    0.5 0.5 -0.0045

xred10
    0.0 0.0 0.0024
    0.5 0.5 0.509
    0.0 0.5 0.495
    0.5 0.0 0.495
    0.5 0.5 -0.005

xred11
    0.0 0.0 0.00264
    0.5 0.5 0.5099
    0.0 0.5 0.4945
    0.5 0.0 0.4945
    0.5 0.5 -0.0055

xred12
    0.0 0.0 0.00288
    0.5 0.5 0.5108
    0.0 0.5 0.494
    0.5 0.0 0.494
    0.5 0.5 -0.006

xred13
    0.0 0.0 0.00312
    0.5 0.5 0.5117
    0.0 0.5 0.4935
    0.5 0.0 0.4935
    0.5 0.5 -0.0065

xred14
    0.0 0.0 0.00336
    0.5 0.5 0.5126
    0.0 0.5 0.493
    0.5 0.0 0.493
    0.5 0.5 -0.007

xred15
    0.0 0.0 0.0036
    0.5 0.5 0.5135
    0.0 0.5 0.4925
    0.5 0.0 0.4925
    0.5 0.5 -0.0075

xred16
    0.0 0.0 0.00384
    0.5 0.5 0.5144
    0.0 0.5 0.492
    0.5 0.0 0.492
    0.5 0.5 -0.008

xred17
    0.0 0.0 0.00408
    0.5 0.5 0.5153
    0.0 0.5 0.4915
    0.5 0.0 0.4915
    0.5 0.5 -0.0085

xred18
    0.0 0.0 0.00432
    0.5 0.5 0.5162
    0.0 0.5 0.491
    0.5 0.0 0.491
    0.5 0.5 -0.009

xred19
    0.0 0.0 0.00456
    0.5 0.5 0.5171
    0.0 0.5 0.4905
    0.5 0.0 0.4905
    0.5 0.5 -0.0095

xred20
    0.0 0.0 0.0048
    0.5 0.5 0.518
    0.0 0.5 0.49
    0.5 0.0 0.49
    0.5 0.5 -0.01
